N = 14;
H = 5;
T = 2;

avail = array3d(1..N, 1..H, 1..T, [3, 8, 8, 6, 7, 4, 10, 0, 2, 0, 8, 9, 10, 4, 1, 8, 5, 3, 8, 9, 2, 3, 2, 1, 0, 4, 8, 6, 10, 10, 6, 1, 7, 10, 1, 10, 3, 6, 7, 4, 7, 2, 2, 3, 1, 8, 7, 4, 7, 7, 8, 8, 2, 8, 3, 7, 0, 5, 0, 2, 8, 3, 5, 5, 6, 7, 5, 8, 9, 5, 6, 5, 9, 9, 3, 4, 2, 4, 10, 8, 10, 0, 10, 2, 3, 1, 8, 10, 4, 7, 6, 9, 5, 4, 0, 10, 6, 0, 1, 0, 0, 3, 9, 6, 5, 2, 9, 6, 4, 7, 1, 4, 5, 4, 1, 10, 0, 1, 8, 5, 10, 6, 3, 8, 4, 9, 7, 4, 4, 6, 5, 6, 7, 4, 1, 4, 4, 4, 7, 9]);

r = array2d(1..H, 1..T, [1, 3, 3, 1, 3, 8, 6, 5, 5, 4]);
